nNurses = 189;
nHours = 34;
minHours = 8;
maxHours = 14;
maxConsec = 10;
maxPresence = 24;
demand = [31, 28, 33, 29, 30, 25, 22, 22, 20, 19, 24, 25, 28, 30, 31, 26, 28, 31, 26, 26, 21, 24, 26, 25, 26, 25, 25, 30, 30, 27, 30, 35, 40, 43];
